57809
57010
52836
58580
56133
50289
52162
59542
51716
57637
58038
58269
56883
55598
52402
52997
51523
55599
57160
50894
51475
57242
55939
58334
51677
54851
50910
55094
51837
57769
59314
53721
53728
56841
51782
57247
50987
57096
56661
58199
56545
59777
51011
56559
54156
50825
53162
50198
53234
51865
57811
53901
57451
52697
59521
53954
51479
57737
56147
51338
57854
57447
51093
51668
58469
54181
53749
50794
56174
50730
50562
50739
59934
54255
58169
55078
53416
50604
50810
51396
56676
52795
56111
59075
51977
55718
57422
52290
51140
51565
51239
57247
59309
56114
58436
53790
58187
55775
53918
53070
